VFR400_60_1.txt
Set parameter Username
Academic license - for non-commercial use only - expires 2023-04-30
Set parameter Threads to value 8
Set parameter TimeLimit to value 3600
Gurobi Optimizer version 9.5.1 build v9.5.1rc2 (linux64)
Thread count: 4 physical cores, 8 logical processors, using up to 8 threads
Optimize a model with 14388000 rows, 9624001 columns and 38352000 nonzeros
Model fingerprint: 0x4d956fdb
Variable types: 24001 continuous, 9600000 integer (9600000 binary)
Coefficient statistics:
  Matrix range     [1e+00, 1e+06]
  Objective range  [1e+00, 1e+00]
  Bounds range     [1e+00, 1e+00]
  RHS range        [1e+00, 1e+06]
Presolve removed 4440180 rows and 24000 columns (presolve time = 5s) ...
Presolve removed 4788000 rows and 4812000 columns (presolve time = 11s) ...
Presolve removed 4788000 rows and 4812000 columns (presolve time = 16s) ...
Presolve removed 4788000 rows and 4812000 columns (presolve time = 21s) ...
Presolve removed 4788000 rows and 4812000 columns (presolve time = 25s) ...
Presolve removed 4788000 rows and 4812000 columns (presolve time = 30s) ...
Presolve removed 4788000 rows and 4812000 columns (presolve time = 36s) ...
Presolve removed 4788000 rows and 4812000 columns (presolve time = 40s) ...
Presolve removed 4788000 rows and 4812000 columns (presolve time = 45s) ...
Presolve removed 4788000 rows and 4812000 columns (presolve time = 62s) ...
Presolve removed 4788000 rows and 4812000 columns (presolve time = 66s) ...
Presolve removed 4788000 rows and 4812000 columns
Presolve time: 69.00s
Presolved: 9600000 rows, 4812001 columns, 28776000 nonzeros
Variable types: 24001 continuous, 4788000 integer (4788000 binary)
Found heuristic solution: objective 30386.000000

Deterministic concurrent LP optimizer: primal simplex, dual simplex, and barrier
Showing barrier log only...

Root barrier log...

Elapsed ordering time = 84s
Elapsed ordering time = 85s
Elapsed ordering time = 90s
Elapsed ordering time = 142s
